c 168_4_checker.cnf
c
c field = 168
c formula set type = 4_checker
c
p cnf 5 38
330 
332 
336 
338 
-340 
331 
333 
337 
339 
-341 
332 
336 
338 
340 
-330 
333 
337 
339 
341 
-331 
332 
336 
338 
340 
-342 
333 
337 
339 
341 
-343 
336 
338 
340 
342 
-332 
337 
339 
341 
343 
-333 
336 
338 
340 
342 
-344 
337 
339 
341 
343 
-345 
214 
244 
274 
304 
-184 
215 
245 
275 
305 
-185 
214 
244 
274 
304 
-364 
215 
245 
275 
305 
-365 
244 
274 
304 
364 
-214 
245 
275 
305 
365 
-215 
244 
274 
304 
364 
-394 
245 
275 
305 
365 
-395 
274 
304 
364 
394 
-244 
275 
305 
365 
395 
-245 
274 
304 
364 
394 
-424 
275 
305 
365 
395 
-425 
304 
364 
394 
424 
-274 
305 
365 
395 
425 
-275 
270 
302 
366 
398 
-430 
271 
303 
367 
399 
-431 
302 
366 
398 
430 
-270 
303 
367 
399 
431 
-271 
222 
250 
278 
306 
-194 
223 
251 
279 
307 
-195 
222 
250 
278 
306 
-362 
223 
251 
279 
307 
-363 
250 
278 
306 
362 
-222 
251 
279 
307 
363 
-223 
250 
278 
306 
362 
-390 
251 
279 
307 
363 
-391 
278 
306 
362 
390 
-250 
279 
307 
363 
391 
-251 
